0, 10, 0
4, 10, 7
8, 10, 9
0, 10, 11
0, 10, 15
3, 10, 12
8, 10, 13
0, 10, 14
0, 10, 7
0, 10, 0
0, 10, 2
0, 10, 11
5, 10, 8
3, 10, 15
0, 10, 6
0, 10, 6
4, 10, 12
0, 10, 0
0, 10, 3
5, 10, 10
0, 10, 0
1, 10, 1
0, 10, 0
0, 10, 11
1, 10, 1
8, 10, 9
0, 10, 5
5, 10, 6
